
Gurobi 9.5.1 (linux64) logging started Wed Mar  9 18:05:17 2022

Set parameter LogFile to value "../results/logs/log_2022_03_09_17_57.csv_6_45.log"
Set parameter Method to value 3
Gurobi Optimizer version 9.5.1 build v9.5.1rc2 (linux64)
Thread count: 8 physical cores, 8 logical processors, using up to 8 threads
Optimize a model with 1039 rows, 9882 columns and 16749 nonzeros
Model fingerprint: 0x38e4d820
Variable types: 4941 continuous, 4941 integer (4941 binary)
Coefficient statistics:
  Matrix range     [1e+00, 6e+00]
  Objective range  [1e+00, 1e+00]
  Bounds range     [1e+00, 1e+00]
  RHS range        [1e+00, 4e+01]
Found heuristic solution: objective -0.0000000
Presolve removed 585 rows and 9150 columns
Presolve time: 0.02s
Presolved: 454 rows, 732 columns, 2692 nonzeros
Extracted 154 lazy constraints
Variable types: 413 continuous, 319 integer (317 binary)

Concurrent LP optimizer: primal simplex, dual simplex, and barrier
Showing barrier log only...

Root barrier log...

Ordering time: 0.00s

Barrier statistics:
 AA' NZ     : 5.250e+02
 Factor NZ  : 1.997e+03
 Factor Ops : 2.132e+04 (less than 1 second per iteration)
 Threads    : 1

                  Objective                Residual
Iter       Primal          Dual         Primal    Dual     Compl     Time
   0   5.44683113e+02  5.99846268e+03  1.29e+00 2.61e+00  9.18e+00     0s
   1   1.79703640e+02  2.55601019e+03  6.13e-02 1.16e+00  1.62e+00     0s
   2   2.06826306e+02  4.55369407e+02  0.00e+00 8.13e-02  1.52e-01     0s
   3   3.22180565e+02  3.44428418e+02  0.00e+00 2.13e-03  1.29e-02     0s
   4   3.31936251e+02  3.32113422e+02  0.00e+00 1.78e-15  1.01e-04     0s
   5   3.32000000e+02  3.32000000e+02  0.00e+00 3.55e-15  4.76e-10     0s

Barrier solved model in 5 iterations and 0.02 seconds (0.02 work units)
Optimal objective 3.32000000e+02


Solved with dual simplex

Root relaxation: objective 3.320000e+02, 137 iterations, 0.00 seconds (0.00 work units)

    Nodes    |    Current Node    |     Objective Bounds      |     Work
 Expl Unexpl |  Obj  Depth IntInf | Incumbent    BestBd   Gap | It/Node Time

     0     0  115.39087    0  152   -0.00000  115.39087      -     -    0s
     0     0   60.97197    0   70   -0.00000   60.97197      -     -    0s
     0     0   60.53827    0   60   -0.00000   60.53827      -     -    0s
     0     0   60.48934    0   57   -0.00000   60.48934      -     -    0s
     0     0   58.45556    0   43   -0.00000   58.45556      -     -    0s
     0     0   58.11195    0   32   -0.00000   58.11195      -     -    0s
     0     0   58.07071    0   55   -0.00000   58.07071      -     -    0s
     0     0   57.59175    0   21   -0.00000   57.59175      -     -    0s
     0     0   57.42090    0   28   -0.00000   57.42090      -     -    0s
     0     0   57.20596    0   28   -0.00000   57.20596      -     -    0s
     0     0   57.20429    0   28   -0.00000   57.20429      -     -    0s
     0     0   56.91372    0   33   -0.00000   56.91372      -     -    0s
     0     0   56.91372    0   33   -0.00000   56.91372      -     -    0s
     0     2   56.91372    0   33   -0.00000   56.91372      -     -    0s
H   31    40                      54.0000000   56.26330  4.19%  20.5    0s
*  695    45              16      55.0000000   55.43490  0.79%  12.0    0s

Cutting planes:
  Gomory: 59
  Lift-and-project: 15
  Implied bound: 23
  MIR: 143
  RLT: 24
  Relax-and-lift: 15
  Lazy constraints: 146

Explored 802 nodes (10898 simplex iterations) in 0.23 seconds (0.22 work units)
Thread count was 8 (of 8 available processors)

Solution count 3: 55 54 -0 

Optimal solution found (tolerance 1.00e-04)
Best objective 5.500000000000e+01, best bound 5.500000000000e+01, gap 0.0000%
